
n_res = 6;
rcap = [31, 32, 296, 302, 328, 292];
rtype = [1, 1, 2, 2, 2, 2];
n_tasks = 50;
modes =  [{1, 2, 3}, {4, 5, 6}, {7, 8, 9}, {10, 11, 12}, {13, 14, 15}, {16, 17, 18}, {19, 20, 21}, {22, 23, 24}, {25, 26, 27}, {28, 29, 30}, {31, 32, 33}, {34, 35, 36}, {37, 38, 39}, {40, 41, 42}, {43, 44, 45}, {46, 47, 48}, {49, 50, 51}, {52, 53, 54}, {55, 56, 57}, {58, 59, 60}, {61, 62, 63}, {64, 65, 66}, {67, 68, 69}, {70, 71, 72}, {73, 74, 75}, {76, 77, 78}, {79, 80, 81}, {82, 83, 84}, {85, 86, 87}, {88, 89, 90}, {91, 92, 93}, {94, 95, 96}, {97, 98, 99}, {100, 101, 102}, {103, 104, 105}, {106, 107, 108}, {109, 110, 111}, {112, 113, 114}, {115, 116, 117}, {118, 119, 120}, {121, 122, 123}, {124, 125, 126}, {127, 128, 129}, {130, 131, 132}, {133, 134, 135}, {136, 137, 138}, {139, 140, 141}, {142, 143, 144}, {145, 146, 147}, {148, 149, 150}];
succ =  [{49, 32, 28, 27, 26, 25, 24, 23, 18, 16, 14, 11}, {48, 46, 34, 33, 12, 6}, {50, 45, 43, 42, 33, 19, 16, 15}, {45, 43, 42, 33, 21, 19, 18, 13}, {50, 49, 47, 45, 44, 42, 32, 31, 30, 23, 18, 17}, {50, 49, 42, 32, 31, 11}, {48, 47, 46, 44, 43, 40, 38, 37, 32, 26, 21}, {45, 43, 30, 23, 18, 16}, {42, 32, 11}, {47, 46, 45, 42, 40, 38, 37, 36, 32, 30}, {45, 44, 43, 40, 38, 37, 21}, {50, 44, 42, 40, 37, 18}, {47, 38, 31, 25, 23}, {48, 46, 42, 40, 38, 37, 35, 31}, {37, 32, 30, 18}, {47, 46, 40, 39, 37, 35, 31}, {43, 33, 24}, {41, 39, 38, 36, 35}, {49, 48, 44, 35}, {46, 42, 41, 38}, {39, 36, 30}, {43, 38, 31}, {39, 37, 36}, {40, 37}, {40, 35}, {42, 39}, {39, 35}, {37, 36}, {30}, {35}, {36}, {41}, {35}, {38}, {}, {}, {}, {}, {}, {}, {}, {}, {}, {}, {}, {}, {}, {}, {}, {}];
n_opt = 150;
dur = [1, 5, 6, 1, 9, 10, 2, 4, 5, 2, 8, 9, 6, 9, 10, 4, 5, 6, 1, 6, 9, 2, 5, 7, 4, 6, 7, 1, 3, 6, 4, 8, 9, 2, 6, 7, 1, 8, 9, 4, 7, 9, 7, 8, 10, 1, 3, 5, 2, 3, 9, 1, 5, 9, 1, 4, 7, 2, 5, 7, 3, 6, 8, 6, 7, 9, 1, 3, 8, 2, 8, 9, 3, 6, 10, 1, 5, 6, 1, 2, 7, 6, 7, 9, 3, 5, 6, 2, 4, 5, 1, 2, 3, 1, 3, 7, 5, 6, 7, 1, 4, 10, 2, 5, 6, 1, 7, 8, 4, 5, 6, 1, 2, 8, 1, 4, 8, 4, 5, 9, 2, 7, 9, 1, 9, 10, 1, 2, 3, 5, 6, 8, 1, 6, 7, 7, 8, 10, 3, 4, 9, 1, 4, 9, 1, 6, 7, 1, 4, 5];
rreq = [|7, 7, 7, 1, 1, 1, 6, 4, 3, 3, 1, 1, 7, 5, 5, 3, 1, 1, 5, 5, 5, 7, 5, 2, 7, 7, 7, 7, 7, 6, 5, 4, 2, 6, 6, 6, 9, 9, 8, 8, 6, 5, 3, 3, 3, 6, 5, 5, 8, 5, 3, 4, 3, 3, 7, 5, 4, 9, 8, 5, 10, 8, 7, 3, 2, 2, 9, 6, 3, 9, 5, 4, 4, 4, 4, 10, 10, 10, 7, 7, 6, 9, 8, 8, 6, 3, 2, 9, 8, 5, 8, 7, 7, 8, 6, 6, 5, 5, 3, 6, 3, 3, 10, 7, 5, 10, 5, 4, 3, 3, 3, 6, 5, 2, 3, 3, 1, 4, 3, 1, 1, 1, 1, 3, 3, 3, 1, 1, 1, 7, 6, 4, 10, 9, 9, 6, 3, 3, 10, 8, 8, 8, 4, 3, 5, 3, 3, 4, 3, 3
 |6, 2, 2, 4, 4, 4, 10, 10, 10, 7, 7, 7, 9, 9, 9, 3, 3, 2, 2, 2, 2, 5, 4, 4, 6, 6, 5, 8, 8, 7, 5, 3, 3, 9, 7, 6, 9, 5, 5, 7, 5, 3, 9, 8, 8, 6, 5, 1, 9, 8, 6, 10, 9, 8, 6, 5, 5, 7, 4, 3, 10, 8, 7, 1, 1, 1, 5, 4, 4, 8, 6, 5, 8, 8, 7, 9, 5, 2, 9, 8, 6, 8, 5, 3, 8, 7, 6, 6, 6, 6, 6, 5, 4, 9, 7, 5, 1, 1, 1, 2, 2, 2, 4, 3, 1, 9, 4, 3, 3, 3, 2, 7, 7, 7, 8, 6, 6, 6, 6, 2, 4, 4, 3, 8, 6, 4, 6, 4, 3, 7, 3, 3, 8, 8, 8, 8, 8, 7, 7, 6, 4, 6, 6, 6, 6, 6, 6, 8, 6, 6
 |5, 5, 5, 9, 4, 4, 9, 6, 5, 4, 2, 1, 9, 7, 5, 9, 7, 7, 7, 6, 5, 7, 4, 3, 2, 1, 1, 6, 4, 3, 8, 6, 5, 8, 7, 6, 5, 4, 3, 8, 8, 4, 4, 4, 4, 9, 4, 3, 4, 4, 4, 8, 8, 6, 8, 5, 4, 5, 2, 1, 4, 3, 1, 7, 6, 4, 10, 5, 4, 10, 8, 8, 3, 2, 2, 6, 4, 1, 10, 9, 8, 9, 7, 7, 5, 4, 4, 6, 6, 5, 5, 4, 3, 6, 5, 3, 6, 6, 2, 7, 5, 5, 7, 5, 3, 6, 5, 4, 6, 6, 4, 7, 6, 4, 7, 3, 2, 7, 5, 4, 10, 10, 10, 3, 3, 3, 7, 5, 4, 8, 6, 3, 6, 5, 3, 4, 4, 3, 7, 5, 3, 5, 5, 5, 5, 4, 3, 6, 5, 3
 |2, 1, 1, 3, 1, 1, 6, 4, 3, 6, 5, 4, 5, 5, 4, 2, 1, 1, 8, 8, 6, 7, 6, 6, 6, 5, 2, 8, 7, 5, 6, 2, 1, 7, 7, 7, 9, 8, 8, 9, 7, 7, 4, 3, 1, 8, 6, 6, 7, 7, 5, 5, 3, 3, 8, 6, 6, 8, 7, 5, 6, 6, 4, 5, 3, 2, 8, 7, 6, 9, 8, 6, 8, 6, 4, 10, 7, 7, 9, 6, 5, 5, 3, 3, 5, 4, 4, 10, 8, 5, 3, 3, 2, 9, 9, 8, 5, 4, 4, 8, 8, 5, 10, 8, 8, 9, 6, 4, 4, 3, 2, 7, 4, 2, 7, 5, 5, 10, 7, 7, 6, 5, 2, 6, 4, 3, 4, 3, 2, 7, 7, 2, 8, 7, 6, 10, 9, 9, 3, 2, 1, 7, 5, 4, 6, 6, 4, 5, 2, 2
 |2, 1, 1, 7, 3, 1, 8, 6, 6, 4, 3, 3, 8, 6, 6, 9, 9, 9, 2, 2, 2, 10, 9, 7, 10, 7, 6, 3, 2, 2, 6, 6, 6, 9, 9, 9, 9, 7, 6, 10, 9, 8, 7, 6, 4, 6, 6, 6, 5, 4, 4, 9, 6, 5, 4, 4, 4, 9, 8, 7, 9, 8, 7, 9, 7, 6, 5, 3, 2, 9, 9, 9, 5, 3, 3, 9, 8, 6, 6, 3, 3, 3, 1, 1, 10, 9, 8, 9, 9, 9, 5, 5, 5, 5, 3, 3, 9, 8, 8, 9, 7, 4, 8, 7, 7, 6, 5, 5, 7, 7, 7, 10, 7, 4, 7, 5, 5, 9, 7, 7, 6, 4, 4, 9, 9, 9, 3, 3, 3, 8, 7, 4, 7, 6, 4, 8, 4, 4, 7, 4, 4, 5, 3, 3, 8, 7, 5, 6, 5, 5
 |10, 9, 8, 5, 4, 4, 3, 2, 2, 4, 3, 3, 7, 6, 6, 9, 8, 8, 5, 5, 4, 5, 4, 3, 6, 4, 3, 6, 6, 5, 5, 5, 3, 7, 5, 3, 9, 8, 7, 7, 6, 5, 5, 4, 4, 7, 4, 3, 10, 8, 8, 9, 9, 8, 9, 8, 8, 8, 5, 4, 4, 3, 3, 3, 2, 1, 4, 4, 4, 10, 8, 4, 6, 6, 6, 6, 6, 2, 8, 7, 7, 9, 9, 9, 6, 6, 6, 6, 6, 6, 10, 6, 4, 9, 9, 9, 3, 3, 3, 7, 7, 7, 6, 6, 6, 3, 3, 3, 3, 2, 2, 6, 4, 2, 8, 4, 3, 2, 2, 2, 4, 3, 2, 4, 3, 1, 10, 6, 3, 10, 9, 8, 4, 2, 1, 8, 6, 4, 6, 5, 5, 3, 3, 2, 5, 5, 4, 6, 6, 5|];